N = 70;
M = 152;
Edge_Start = [1, 1, 2, 3, 3, 4, 5, 6, 7, 7, 8, 9, 9, 10, 13, 13, 14, 15, 15, 16, 17, 17, 18, 19, 19, 20, 22, 23, 24, 24, 25, 26, 27, 28, 28, 29, 30, 32, 32, 33, 34, 34, 36, 37, 37, 39, 39, 41, 41, 42, 43, 44, 45, 46, 48, 48, 49, 51, 52, 52, 54, 55, 56, 56, 57, 58, 58, 60, 61, 62, 63, 64, 65, 66, 67, 68, 2, 12, 3, 4, 14, 5, 16, 7, 8, 18, 9, 10, 20, 11, 14, 25, 15, 16, 27, 17, 18, 29, 19, 20, 31, 21, 23, 35, 25, 36, 26, 27, 28, 29, 40, 30, 42, 33, 44, 34, 35, 46, 37, 38, 49, 40, 51, 42, 53, 43, 55, 45, 57, 47, 49, 60, 50, 52, 53, 64, 66, 56, 57, 68, 58, 59, 70, 61, 62, 63, 64, 65, 66, 67, 68, 69];
Edge_End = [2, 12, 3, 4, 14, 5, 16, 7, 8, 18, 9, 10, 20, 11, 14, 25, 15, 16, 27, 17, 18, 29, 19, 20, 31, 21, 23, 35, 25, 36, 26, 27, 28, 29, 40, 30, 42, 33, 44, 34, 35, 46, 37, 38, 49, 40, 51, 42, 53, 43, 55, 45, 57, 47, 49, 60, 50, 52, 53, 64, 66, 56, 57, 68, 58, 59, 70, 61, 62, 63, 64, 65, 66, 67, 68, 69, 1, 1, 2, 3, 3, 4, 5, 6, 7, 7, 8, 9, 9, 10, 13, 13, 14, 15, 15, 16, 17, 17, 18, 19, 19, 20, 22, 23, 24, 24, 25, 26, 27, 28, 28, 29, 30, 32, 32, 33, 34, 34, 36, 37, 37, 39, 39, 41, 41, 42, 43, 44, 45, 46, 48, 48, 49, 51, 52, 52, 54, 55, 56, 56, 57, 58, 58, 60, 61, 62, 63, 64, 65, 66, 67, 68];
L = [4, 3, 7, 15, 18, 8, 2, 17, 6, 7, 15, 2, 19, 10, 6, 16, 3, 18, 9, 6, 19, 3, 3, 13, 7, 17, 5, 13, 6, 16, 9, 12, 2, 14, 16, 17, 14, 16, 8, 18, 8, 15, 12, 5, 8, 4, 5, 5, 17, 11, 1, 11, 5, 6, 9, 14, 1, 7, 14, 18, 17, 5, 7, 15, 5, 4, 10, 1, 13, 4, 9, 13, 3, 17, 1, 9, 4, 3, 7, 15, 18, 8, 2, 17, 6, 7, 15, 2, 19, 10, 6, 16, 3, 18, 9, 6, 19, 3, 3, 13, 7, 17, 5, 13, 6, 16, 9, 12, 2, 14, 16, 17, 14, 16, 8, 18, 8, 15, 12, 5, 8, 4, 5, 5, 17, 11, 1, 11, 5, 6, 9, 14, 1, 7, 14, 18, 17, 5, 7, 15, 5, 4, 10, 1, 13, 4, 9, 13, 3, 17, 1, 9];
T = [6, 9, 7, 17, 13, 8, 1, 15, 2, 5, 19, 1, 21, 11, 14, 18, 2, 18, 3, 12, 9, 3, 1, 10, 8, 16, 5, 1, 1, 16, 1, 18, 1, 4, 12, 16, 5, 8, 7, 18, 9, 19, 6, 1, 12, 14, 1, 3, 18, 6, 2, 6, 3, 2, 4, 16, 1, 13, 14, 23, 16, 4, 17, 5, 1, 1, 13, 4, 4, 12, 4, 12, 1, 3, 1, 10, 6, 9, 7, 17, 13, 8, 1, 15, 2, 5, 19, 1, 21, 11, 14, 18, 2, 18, 3, 12, 9, 3, 1, 10, 8, 16, 5, 1, 1, 16, 1, 18, 1, 4, 12, 16, 5, 8, 7, 18, 9, 19, 6, 1, 12, 14, 1, 3, 18, 6, 2, 6, 3, 2, 4, 16, 1, 13, 14, 23, 16, 4, 17, 5, 1, 1, 13, 4, 4, 12, 4, 12, 1, 3, 1, 10];
Lower_Bound = [0, 6, 13, 30, 38, 68, 53, 55, 74, 75, 86, 9, 40, 26, 28, 39, 39, 48, 49, 59, 75, 143, 138, 51, 50, 49, 31, 32, 36, 52, 57, 102, 110, 128, 137, 67, 73, 74, 58, 44, 60, 57, 63, 95, 89, 147, 149, 89, 85, 86, 59, 72, 78, 94, 65, 69, 86, 87, 88, 105, 109, 107, 95, 91, 79, 78, 75, 74, 84, 100];
Upper_Bound = [0, 6, 13, 30, 38, 68, 53, 55, 74, 75, 86, 9, 40, 26, 28, 39, 39, 48, 49, 59, 75, 143, 138, 51, 50, 49, 31, 32, 36, 52, 57, 102, 110, 128, 137, 67, 73, 74, 58, 44, 60, 57, 63, 95, 89, 147, 149, 89, 85, 86, 59, 72, 78, 94, 65, 69, 86, 87, 88, 105, 109, 107, 95, 91, 79, 78, 75, 74, 84, 100];
Start = 1;
End = 70;
Time = 100;
